#Who: Hamza AlHasan
#When: 9-11-2020
#What: LAMMPS code for 2d Lennard-Jones gas
#N = 760
#Time steps = 100,000

units lj
dimension 2
boundary p p p
atom_style atomic

lattice hex 0.25
region simbox block 0 40 0 20 -0.1 0.1
create_box 1 simbox
region 2 block 0.5 20 0.5 19.5 -0.5 0.05
create_atoms 1 region 2

mass 1 1.0
velocity all create 2.5 87287

pair_style lj/cut 2.5
pair_coeff 1 1 1.0 1.0 2.5

neighbor 0.3 bin
neigh_modify every 20 delay 0 check no

fix wall all wall/region simbox lj126 1.0 1.0 2.5
fix 1 all nve

dump 1 all custom 10 dump.lammpstrj id type x y z vx vy vz
thermo 100
run 100000